# Solution for model F-JSSP-SDST
# Objective value = 132
B0(8) 1
B1(7) 1
B2(8) 0
B3(11) 0
B4(9) 1
B5(8) 1
B6(0) 0
B7(0) 0
B8(2) 0
B9(0) 0
B10(0) 0
B11(0) 0
B12(4) 1
B13(2) 0
B14(0) 0
B15(0) 0
B16(0) 0
B17(0) 0
B18(0) 0
B19(0) 0
B20(0) 0
B21(0) 0
I22(9) 0
I23(10) 48
I24(12) 0
I25(11) 0
I26(9) 9
I27(10) 49
I28(1) 132
B29(2) 1
B30(4) 1
B31(4) 0
B32(2) 0
B33(2) 1
B34(4) 1
